instances/knapsack/discrete_knapsack_uncertainty/knapsack_90_14.lp
\ Model knapsack_90_14
\ LP format - for model browsing. Use MPS format to capture full model detail.
\ Signature: 0xc29ff4c0dcb79651
Minimize
  - 73 x[0] - 50 x[1] - 39 x[2] - 63 x[3] - 81 x[4] - 64 x[5] - x[6]
   - 83 x[7] - 34 x[8] - 18 x[9] - 22 x[10] - 38 x[11] - 18 x[12]
   - 89 x[13] - 70 x[14] - 19 x[15] - 37 x[16] - 49 x[17] - 78 x[18]
   - 33 x[19] - 21 x[20] - 98 x[21] - 35 x[22] - 39 x[23] - 80 x[24]
   - 10 x[25] - 67 x[26] - 91 x[27] - 53 x[28] - 68 x[29] - 12 x[30]
   - 19 x[31] - 47 x[32] - 62 x[33] - 71 x[34] - 60 x[35] - 44 x[36]
   - 98 x[37] - 62 x[38] - 63 x[39] - 59 x[40] - 89 x[41] - 65 x[42]
   - 90 x[43] - 34 x[44] - 10 x[45] - 76 x[46] - 40 x[47] - 72 x[48]
   - 61 x[49] - 34 x[50] - 26 x[51] - 30 x[52] - 88 x[53] - 71 x[54]
   - 85 x[55] - 34 x[56] - 19 x[57] - 19 x[58] - 94 x[59] - 39 x[60]
   - 13 x[61] - 17 x[62] - 89 x[63] - 30 x[64] - 4 x[65] - 92 x[66]
   - 73 x[67] - 76 x[68] - 53 x[69] - 20 x[70] - 10 x[71] - 24 x[72]
   - 69 x[73] - 94 x[74] - 81 x[75] - 33 x[76] - 44 x[77] - 7 x[78]
   - 79 x[79] - 46 x[80] - 61 x[81] - 85 x[82] - 37 x[83] - 64 x[84]
   - 64 x[85] - 5 x[86] - 2 x[87] - 95 x[88] - 14 x[89]
Subject To
 primal_upper: 63 x[0] + 63 x[1] + 9 x[2] + 38 x[3] + 11 x[4] + 97 x[5]
   + 88 x[6] + 19 x[7] + 16 x[8] + 97 x[9] + 15 x[10] + 98 x[11] + 7 x[12]
   + 67 x[13] + 36 x[14] + 88 x[15] + 60 x[16] + 3 x[17] + 12 x[18]
   + 73 x[19] + 4 x[20] + 19 x[21] + 11 x[22] + 14 x[23] + 100 x[24]
   + 95 x[25] + 65 x[26] + 83 x[27] + 77 x[28] + 30 x[29] + 53 x[30]
   + 3 x[31] + 79 x[32] + 4 x[33] + 47 x[34] + 4 x[35] + 63 x[36]
   + 64 x[37] + 87 x[38] + 2 x[39] + 30 x[40] + 5 x[41] + 81 x[42]
   + 37 x[43] + 82 x[44] + 62 x[45] + 85 x[46] + 17 x[47] + 74 x[48]
   + 95 x[49] + 34 x[50] + 51 x[51] + 36 x[52] + 27 x[53] + 48 x[54]
   + 99 x[55] + 36 x[56] + 14 x[57] + 51 x[58] + 21 x[59] + 20 x[60]
   + 30 x[61] + 3 x[62] + 26 x[63] + 83 x[64] + 83 x[65] + 16 x[66]
   + 94 x[67] + 55 x[68] + 29 x[69] + 69 x[70] + 53 x[71] + 89 x[72]
   + 82 x[73] + 75 x[74] + 60 x[75] + 30 x[76] + 38 x[77] + 44 x[78]
   + 94 x[79] + 69 x[80] + 45 x[81] + 6 x[82] + 69 x[83] + 29 x[84]
   + 49 x[85] + 7 x[86] + 71 x[87] + 5 x[88] + 50 x[89] + 6.3 r[0]
   + 6.3 r[1] + 0.9 r[2] + 3.8 r[3] + 1.1 r[4] + 9.7 r[5] + 8.8 r[6]
   + 1.9 r[7] + 1.6 r[8] + 9.7 r[9] + 1.5 r[10] + 9.8 r[11] + 0.7 r[12]
   + 6.7 r[13] + 3.6 r[14] + 8.8 r[15] + 6 r[16] + 0.3 r[17] + 1.2 r[18]
   + 7.3 r[19] + 0.4 r[20] + 1.9 r[21] + 1.1 r[22] + 1.4 r[23] + 10 r[24]
   + 9.5 r[25] + 6.5 r[26] + 8.3 r[27] + 7.7 r[28] + 3 r[29] + 5.3 r[30]
   + 0.3 r[31] + 7.9 r[32] + 0.4 r[33] + 4.7 r[34] + 0.4 r[35] + 6.3 r[36]
   + 6.4 r[37] + 8.7 r[38] + 0.2 r[39] + 3 r[40] + 0.5 r[41] + 8.1 r[42]
   + 3.7 r[43] + 8.2 r[44] + 6.2 r[45] + 8.5 r[46] + 1.7 r[47] + 7.4 r[48]
   + 9.5 r[49] + 3.4 r[50] + 5.1 r[51] + 3.6 r[52] + 2.7 r[53] + 4.8 r[54]
   + 9.9 r[55] + 3.6 r[56] + 1.4 r[57] + 5.1 r[58] + 2.1 r[59] + 2 r[60]
   + 3 r[61] + 0.3 r[62] + 2.6 r[63] + 8.3 r[64] + 8.3 r[65] + 1.6 r[66]
   + 9.4 r[67] + 5.5 r[68] + 2.9 r[69] + 6.9 r[70] + 5.3 r[71] + 8.9 r[72]
   + 8.2 r[73] + 7.5 r[74] + 6 r[75] + 3 r[76] + 3.8 r[77] + 4.4 r[78]
   + 9.4 r[79] + 6.9 r[80] + 4.5 r[81] + 0.6 r[82] + 6.9 r[83] + 2.9 r[84]
   + 4.9 r[85] + 0.7 r[86] + 7.1 r[87] + 0.5 r[88] + 5 r[89] <= 411
 primal_lower: 0.2119356585726117 x[0] + 3.305414860155642 x[1]
   + 0.5271806099805046 x[2] + 3.183909608867423 x[3]
   + 0.5074679359443888 x[4] + 4.02189586253613 x[5]
   + 0.0751904117133152 x[6] + 3.035539945664001 x[7]
   + 1.612279775350569 x[8] + 2.963729391413958 x[9]
   + 1.545693022141736 x[10] + 3.730610708359473 x[11]
   + 4.409837104786553 x[12] + 4.313223144922261 x[13]
   + 2.511913378573863 x[14] + 2.816686571641132 x[15]
   + 0.1043979512969041 x[16] + 0.1254475649841987 x[17]
   + 1.990652357718425 x[18] + 2.997150096201571 x[19]
   + 1.274230153467085 x[20] + 0.4111551792972879 x[21]
   + 0.9925887707965753 x[22] + 3.729945192558291 x[23]
   + 2.788684319410816 x[24] + 0.6112066225728683 x[25]
   + 1.038066612175715 x[26] + 0.2799475768984567 x[27]
   + 0.5526051259340947 x[28] + 3.095526350209018 x[29]
   + 0.3789583864699439 x[30] + 3.472121460653153 x[31]
   + 0.6054918674911064 x[32] + 1.696865087000434 x[33]
   + 3.670325409174866 x[34] + 1.207254335911145 x[35]
   + 0.0443643527706354 x[36] + 3.752503143217758 x[37]
   + 3.513406974896174 x[38] + 4.245517521804794 x[39]
   + 2.723551534396353 x[40] + 1.631001245396736 x[41]
   + 1.515092160602467 x[42] + 1.637893703172544 x[43]
   + 1.482222723216844 x[44] + 1.61791986429344 x[45]
   + 1.147723513451072 x[46] + 0.3766927242055472 x[47]
   + 1.52338711162534 x[48] + 3.596434777580383 x[49]
   + 3.154765461588077 x[50] + 2.332708717551883 x[51]
   + 0.4290473058013193 x[52] + 0.4917908033865401 x[53]
   + 4.077220983180919 x[54] + 2.218920809599055 x[55]
   + 2.146997777992829 x[56] + 3.25513258010636 x[57]
   + 3.366805502841471 x[58] + 3.660290410909882 x[59]
   + 0.5973283759566866 x[60] + 3.853891883316002 x[61]
   + 1.471123645318675 x[62] + 4.321399955121946 x[63]
   + 0.7128713042345798 x[64] + 4.403152837251526 x[65]
   + 0.9780339138902474 x[66] + 3.613919149386106 x[67]
   + 3.442970192823994 x[68] + 1.97759280303389 x[69]
   + 2.573553098539268 x[70] + 3.263174799753116 x[71]
   + 3.513183320680989 x[72] + 3.116717778309928 x[73]
   + 3.829895597794843 x[74] + 3.457783892316707 x[75]
   + 3.09406589918168 x[76] + 4.210233683756642 x[77]
   + 1.040254907407613 x[78] + 3.357683778249464 x[79]
   + 0.0292568038626613 x[80] + 1.513255011788277 x[81]
   + 2.936773487155854 x[82] + 0.5829500092944584 x[83]
   + 4.217951061896603 x[84] + 3.911011867999287 x[85]
   + 0.4049995308696944 x[86] + 1.721979608728094 x[87]
   + 3.353815534562674 x[88] + 3.630497359343539 x[89] + 44 u[0] + 80 u[1]
   + 46 u[2] + 83 u[3] + 52 u[4] + 30 u[5] + 29 u[6] + 40 u[7] + 49 u[8]
   + 62 u[9] + 32 u[10] + 27 u[11] + 84 u[12] + 100 u[13] + 93 u[14]
   + 41 u[15] + 21 u[16] + 48 u[17] + 17 u[18] + 10 u[19] + 89 u[20]
   + 96 u[21] + 32 u[22] + 47 u[23] + 25 u[24] + 40 u[25] + 86 u[26]
   + 68 u[27] + 90 u[28] + 27 u[29] + 78 u[30] + 28 u[31] + 68 u[32]
   + u[33] + 76 u[34] + u[35] + 20 u[36] + 57 u[37] + 16 u[38] + 3 u[39]
   + 31 u[40] + 10 u[41] + 42 u[42] + 58 u[43] + 75 u[44] + 11 u[45]
   + 46 u[46] + 2 u[47] + 59 u[48] + 72 u[49] + 39 u[50] + 40 u[51]
   + 61 u[52] + 60 u[53] + 21 u[54] + 16 u[55] + 29 u[56] + 7 u[57]
   + 56 u[58] + 26 u[59] + 53 u[60] + 87 u[61] + 32 u[62] + 19 u[63]
   + 100 u[64] + 48 u[65] + 41 u[66] + 95 u[67] + 100 u[68] + 62 u[69]
   + 66 u[70] + 74 u[71] + 30 u[72] + 83 u[73] + 20 u[74] + 21 u[75]
   + 11 u[76] + 99 u[77] + 37 u[78] + 59 u[79] + 6 u[80] + 66 u[81]
   + 99 u[82] + 18 u[83] + 82 u[84] + 86 u[85] + 16 u[86] + 52 u[87]
   + 42 u[88] + 3 u[89] <= 29026
 mccormick1[0]: - u[0] + r[0] <= 0
 mccormick1[1]: - u[1] + r[1] <= 0
 mccormick1[2]: - u[2] + r[2] <= 0
 mccormick1[3]: - u[3] + r[3] <= 0
 mccormick1[4]: - u[4] + r[4] <= 0
 mccormick1[5]: - u[5] + r[5] <= 0
 mccormick1[6]: - u[6] + r[6] <= 0
 mccormick1[7]: - u[7] + r[7] <= 0
 mccormick1[8]: - u[8] + r[8] <= 0
 mccormick1[9]: - u[9] + r[9] <= 0
 mccormick1[10]: - u[10] + r[10] <= 0
 mccormick1[11]: - u[11] + r[11] <= 0
 mccormick1[12]: - u[12] + r[12] <= 0
 mccormick1[13]: - u[13] + r[13] <= 0
 mccormick1[14]: - u[14] + r[14] <= 0
 mccormick1[15]: - u[15] + r[15] <= 0
 mccormick1[16]: - u[16] + r[16] <= 0
 mccormick1[17]: - u[17] + r[17] <= 0
 mccormick1[18]: - u[18] + r[18] <= 0
 mccormick1[19]: - u[19] + r[19] <= 0
 mccormick1[20]: - u[20] + r[20] <= 0
 mccormick1[21]: - u[21] + r[21] <= 0
 mccormick1[22]: - u[22] + r[22] <= 0
 mccormick1[23]: - u[23] + r[23] <= 0
 mccormick1[24]: - u[24] + r[24] <= 0
 mccormick1[25]: - u[25] + r[25] <= 0
 mccormick1[26]: - u[26] + r[26] <= 0
 mccormick1[27]: - u[27] + r[27] <= 0
 mccormick1[28]: - u[28] + r[28] <= 0
 mccormick1[29]: - u[29] + r[29] <= 0
 mccormick1[30]: - u[30] + r[30] <= 0
 mccormick1[31]: - u[31] + r[31] <= 0
 mccormick1[32]: - u[32] + r[32] <= 0
 mccormick1[33]: - u[33] + r[33] <= 0
 mccormick1[34]: - u[34] + r[34] <= 0
 mccormick1[35]: - u[35] + r[35] <= 0
 mccormick1[36]: - u[36] + r[36] <= 0
 mccormick1[37]: - u[37] + r[37] <= 0
 mccormick1[38]: - u[38] + r[38] <= 0
 mccormick1[39]: - u[39] + r[39] <= 0
 mccormick1[40]: - u[40] + r[40] <= 0
 mccormick1[41]: - u[41] + r[41] <= 0
 mccormick1[42]: - u[42] + r[42] <= 0
 mccormick1[43]: - u[43] + r[43] <= 0
 mccormick1[44]: - u[44] + r[44] <= 0
 mccormick1[45]: - u[45] + r[45] <= 0
 mccormick1[46]: - u[46] + r[46] <= 0
 mccormick1[47]: - u[47] + r[47] <= 0
 mccormick1[48]: - u[48] + r[48] <= 0
 mccormick1[49]: - u[49] + r[49] <= 0
 mccormick1[50]: - u[50] + r[50] <= 0
 mccormick1[51]: - u[51] + r[51] <= 0
 mccormick1[52]: - u[52] + r[52] <= 0
 mccormick1[53]: - u[53] + r[53] <= 0
 mccormick1[54]: - u[54] + r[54] <= 0
 mccormick1[55]: - u[55] + r[55] <= 0
 mccormick1[56]: - u[56] + r[56] <= 0
 mccormick1[57]: - u[57] + r[57] <= 0
 mccormick1[58]: - u[58] + r[58] <= 0
 mccormick1[59]: - u[59] + r[59] <= 0
 mccormick1[60]: - u[60] + r[60] <= 0
 mccormick1[61]: - u[61] + r[61] <= 0
 mccormick1[62]: - u[62] + r[62] <= 0
 mccormick1[63]: - u[63] + r[63] <= 0
 mccormick1[64]: - u[64] + r[64] <= 0
 mccormick1[65]: - u[65] + r[65] <= 0
 mccormick1[66]: - u[66] + r[66] <= 0
 mccormick1[67]: - u[67] + r[67] <= 0
 mccormick1[68]: - u[68] + r[68] <= 0
 mccormick1[69]: - u[69] + r[69] <= 0
 mccormick1[70]: - u[70] + r[70] <= 0
 mccormick1[71]: - u[71] + r[71] <= 0
 mccormick1[72]: - u[72] + r[72] <= 0
 mccormick1[73]: - u[73] + r[73] <= 0
 mccormick1[74]: - u[74] + r[74] <= 0
 mccormick1[75]: - u[75] + r[75] <= 0
 mccormick1[76]: - u[76] + r[76] <= 0
 mccormick1[77]: - u[77] + r[77] <= 0
 mccormick1[78]: - u[78] + r[78] <= 0
 mccormick1[79]: - u[79] + r[79] <= 0
 mccormick1[80]: - u[80] + r[80] <= 0
 mccormick1[81]: - u[81] + r[81] <= 0
 mccormick1[82]: - u[82] + r[82] <= 0
 mccormick1[83]: - u[83] + r[83] <= 0
 mccormick1[84]: - u[84] + r[84] <= 0
 mccormick1[85]: - u[85] + r[85] <= 0
 mccormick1[86]: - u[86] + r[86] <= 0
 mccormick1[87]: - u[87] + r[87] <= 0
 mccormick1[88]: - u[88] + r[88] <= 0
 mccormick1[89]: - u[89] + r[89] <= 0
 mccormick2[0]: - x[0] + r[0] <= 0
 mccormick2[1]: - x[1] + r[1] <= 0
 mccormick2[2]: - x[2] + r[2] <= 0
 mccormick2[3]: - x[3] + r[3] <= 0
 mccormick2[4]: - x[4] + r[4] <= 0
 mccormick2[5]: - x[5] + r[5] <= 0
 mccormick2[6]: - x[6] + r[6] <= 0
 mccormick2[7]: - x[7] + r[7] <= 0
 mccormick2[8]: - x[8] + r[8] <= 0
 mccormick2[9]: - x[9] + r[9] <= 0
 mccormick2[10]: - x[10] + r[10] <= 0
 mccormick2[11]: - x[11] + r[11] <= 0
 mccormick2[12]: - x[12] + r[12] <= 0
 mccormick2[13]: - x[13] + r[13] <= 0
 mccormick2[14]: - x[14] + r[14] <= 0
 mccormick2[15]: - x[15] + r[15] <= 0
 mccormick2[16]: - x[16] + r[16] <= 0
 mccormick2[17]: - x[17] + r[17] <= 0
 mccormick2[18]: - x[18] + r[18] <= 0
 mccormick2[19]: - x[19] + r[19] <= 0
 mccormick2[20]: - x[20] + r[20] <= 0
 mccormick2[21]: - x[21] + r[21] <= 0
 mccormick2[22]: - x[22] + r[22] <= 0
 mccormick2[23]: - x[23] + r[23] <= 0
 mccormick2[24]: - x[24] + r[24] <= 0
 mccormick2[25]: - x[25] + r[25] <= 0
 mccormick2[26]: - x[26] + r[26] <= 0
 mccormick2[27]: - x[27] + r[27] <= 0
 mccormick2[28]: - x[28] + r[28] <= 0
 mccormick2[29]: - x[29] + r[29] <= 0
 mccormick2[30]: - x[30] + r[30] <= 0
 mccormick2[31]: - x[31] + r[31] <= 0
 mccormick2[32]: - x[32] + r[32] <= 0
 mccormick2[33]: - x[33] + r[33] <= 0
 mccormick2[34]: - x[34] + r[34] <= 0
 mccormick2[35]: - x[35] + r[35] <= 0
 mccormick2[36]: - x[36] + r[36] <= 0
 mccormick2[37]: - x[37] + r[37] <= 0
 mccormick2[38]: - x[38] + r[38] <= 0
 mccormick2[39]: - x[39] + r[39] <= 0
 mccormick2[40]: - x[40] + r[40] <= 0
 mccormick2[41]: - x[41] + r[41] <= 0
 mccormick2[42]: - x[42] + r[42] <= 0
 mccormick2[43]: - x[43] + r[43] <= 0
 mccormick2[44]: - x[44] + r[44] <= 0
 mccormick2[45]: - x[45] + r[45] <= 0
 mccormick2[46]: - x[46] + r[46] <= 0
 mccormick2[47]: - x[47] + r[47] <= 0
 mccormick2[48]: - x[48] + r[48] <= 0
 mccormick2[49]: - x[49] + r[49] <= 0
 mccormick2[50]: - x[50] + r[50] <= 0
 mccormick2[51]: - x[51] + r[51] <= 0
 mccormick2[52]: - x[52] + r[52] <= 0
 mccormick2[53]: - x[53] + r[53] <= 0
 mccormick2[54]: - x[54] + r[54] <= 0
 mccormick2[55]: - x[55] + r[55] <= 0
 mccormick2[56]: - x[56] + r[56] <= 0
 mccormick2[57]: - x[57] + r[57] <= 0
 mccormick2[58]: - x[58] + r[58] <= 0
 mccormick2[59]: - x[59] + r[59] <= 0
 mccormick2[60]: - x[60] + r[60] <= 0
 mccormick2[61]: - x[61] + r[61] <= 0
 mccormick2[62]: - x[62] + r[62] <= 0
 mccormick2[63]: - x[63] + r[63] <= 0
 mccormick2[64]: - x[64] + r[64] <= 0
 mccormick2[65]: - x[65] + r[65] <= 0
 mccormick2[66]: - x[66] + r[66] <= 0
 mccormick2[67]: - x[67] + r[67] <= 0
 mccormick2[68]: - x[68] + r[68] <= 0
 mccormick2[69]: - x[69] + r[69] <= 0
 mccormick2[70]: - x[70] + r[70] <= 0
 mccormick2[71]: - x[71] + r[71] <= 0
 mccormick2[72]: - x[72] + r[72] <= 0
 mccormick2[73]: - x[73] + r[73] <= 0
 mccormick2[74]: - x[74] + r[74] <= 0
 mccormick2[75]: - x[75] + r[75] <= 0
 mccormick2[76]: - x[76] + r[76] <= 0
 mccormick2[77]: - x[77] + r[77] <= 0
 mccormick2[78]: - x[78] + r[78] <= 0
 mccormick2[79]: - x[79] + r[79] <= 0
 mccormick2[80]: - x[80] + r[80] <= 0
 mccormick2[81]: - x[81] + r[81] <= 0
 mccormick2[82]: - x[82] + r[82] <= 0
 mccormick2[83]: - x[83] + r[83] <= 0
 mccormick2[84]: - x[84] + r[84] <= 0
 mccormick2[85]: - x[85] + r[85] <= 0
 mccormick2[86]: - x[86] + r[86] <= 0
 mccormick2[87]: - x[87] + r[87] <= 0
 mccormick2[88]: - x[88] + r[88] <= 0
 mccormick2[89]: - x[89] + r[89] <= 0
 mccormick3[0]: x[0] + u[0] - r[0] <= 1
 mccormick3[1]: x[1] + u[1] - r[1] <= 1
 mccormick3[2]: x[2] + u[2] - r[2] <= 1
 mccormick3[3]: x[3] + u[3] - r[3] <= 1
 mccormick3[4]: x[4] + u[4] - r[4] <= 1
 mccormick3[5]: x[5] + u[5] - r[5] <= 1
 mccormick3[6]: x[6] + u[6] - r[6] <= 1
 mccormick3[7]: x[7] + u[7] - r[7] <= 1
 mccormick3[8]: x[8] + u[8] - r[8] <= 1
 mccormick3[9]: x[9] + u[9] - r[9] <= 1
 mccormick3[10]: x[10] + u[10] - r[10] <= 1
 mccormick3[11]: x[11] + u[11] - r[11] <= 1
 mccormick3[12]: x[12] + u[12] - r[12] <= 1
 mccormick3[13]: x[13] + u[13] - r[13] <= 1
 mccormick3[14]: x[14] + u[14] - r[14] <= 1
 mccormick3[15]: x[15] + u[15] - r[15] <= 1
 mccormick3[16]: x[16] + u[16] - r[16] <= 1
 mccormick3[17]: x[17] + u[17] - r[17] <= 1
 mccormick3[18]: x[18] + u[18] - r[18] <= 1
 mccormick3[19]: x[19] + u[19] - r[19] <= 1
 mccormick3[20]: x[20] + u[20] - r[20] <= 1
 mccormick3[21]: x[21] + u[21] - r[21] <= 1
 mccormick3[22]: x[22] + u[22] - r[22] <= 1
 mccormick3[23]: x[23] + u[23] - r[23] <= 1
 mccormick3[24]: x[24] + u[24] - r[24] <= 1
 mccormick3[25]: x[25] + u[25] - r[25] <= 1
 mccormick3[26]: x[26] + u[26] - r[26] <= 1
 mccormick3[27]: x[27] + u[27] - r[27] <= 1
 mccormick3[28]: x[28] + u[28] - r[28] <= 1
 mccormick3[29]: x[29] + u[29] - r[29] <= 1
 mccormick3[30]: x[30] + u[30] - r[30] <= 1
 mccormick3[31]: x[31] + u[31] - r[31] <= 1
 mccormick3[32]: x[32] + u[32] - r[32] <= 1
 mccormick3[33]: x[33] + u[33] - r[33] <= 1
 mccormick3[34]: x[34] + u[34] - r[34] <= 1
 mccormick3[35]: x[35] + u[35] - r[35] <= 1
 mccormick3[36]: x[36] + u[36] - r[36] <= 1
 mccormick3[37]: x[37] + u[37] - r[37] <= 1
 mccormick3[38]: x[38] + u[38] - r[38] <= 1
 mccormick3[39]: x[39] + u[39] - r[39] <= 1
 mccormick3[40]: x[40] + u[40] - r[40] <= 1
 mccormick3[41]: x[41] + u[41] - r[41] <= 1
 mccormick3[42]: x[42] + u[42] - r[42] <= 1
 mccormick3[43]: x[43] + u[43] - r[43] <= 1
 mccormick3[44]: x[44] + u[44] - r[44] <= 1
 mccormick3[45]: x[45] + u[45] - r[45] <= 1
 mccormick3[46]: x[46] + u[46] - r[46] <= 1
 mccormick3[47]: x[47] + u[47] - r[47] <= 1
 mccormick3[48]: x[48] + u[48] - r[48] <= 1
 mccormick3[49]: x[49] + u[49] - r[49] <= 1
 mccormick3[50]: x[50] + u[50] - r[50] <= 1
 mccormick3[51]: x[51] + u[51] - r[51] <= 1
 mccormick3[52]: x[52] + u[52] - r[52] <= 1
 mccormick3[53]: x[53] + u[53] - r[53] <= 1
 mccormick3[54]: x[54] + u[54] - r[54] <= 1
 mccormick3[55]: x[55] + u[55] - r[55] <= 1
 mccormick3[56]: x[56] + u[56] - r[56] <= 1
 mccormick3[57]: x[57] + u[57] - r[57] <= 1
 mccormick3[58]: x[58] + u[58] - r[58] <= 1
 mccormick3[59]: x[59] + u[59] - r[59] <= 1
 mccormick3[60]: x[60] + u[60] - r[60] <= 1
 mccormick3[61]: x[61] + u[61] - r[61] <= 1
 mccormick3[62]: x[62] + u[62] - r[62] <= 1
 mccormick3[63]: x[63] + u[63] - r[63] <= 1
 mccormick3[64]: x[64] + u[64] - r[64] <= 1
 mccormick3[65]: x[65] + u[65] - r[65] <= 1
 mccormick3[66]: x[66] + u[66] - r[66] <= 1
 mccormick3[67]: x[67] + u[67] - r[67] <= 1
 mccormick3[68]: x[68] + u[68] - r[68] <= 1
 mccormick3[69]: x[69] + u[69] - r[69] <= 1
 mccormick3[70]: x[70] + u[70] - r[70] <= 1
 mccormick3[71]: x[71] + u[71] - r[71] <= 1
 mccormick3[72]: x[72] + u[72] - r[72] <= 1
 mccormick3[73]: x[73] + u[73] - r[73] <= 1
 mccormick3[74]: x[74] + u[74] - r[74] <= 1
 mccormick3[75]: x[75] + u[75] - r[75] <= 1
 mccormick3[76]: x[76] + u[76] - r[76] <= 1
 mccormick3[77]: x[77] + u[77] - r[77] <= 1
 mccormick3[78]: x[78] + u[78] - r[78] <= 1
 mccormick3[79]: x[79] + u[79] - r[79] <= 1
 mccormick3[80]: x[80] + u[80] - r[80] <= 1
 mccormick3[81]: x[81] + u[81] - r[81] <= 1
 mccormick3[82]: x[82] + u[82] - r[82] <= 1
 mccormick3[83]: x[83] + u[83] - r[83] <= 1
 mccormick3[84]: x[84] + u[84] - r[84] <= 1
 mccormick3[85]: x[85] + u[85] - r[85] <= 1
 mccormick3[86]: x[86] + u[86] - r[86] <= 1
 mccormick3[87]: x[87] + u[87] - r[87] <= 1
 mccormick3[88]: x[88] + u[88] - r[88] <= 1
 mccormick3[89]: x[89] + u[89] - r[89] <= 1
Bounds
Binaries
 x[0] x[1] x[2] x[3] x[4] x[5] x[6] x[7] x[8] x[9] x[10] x[11] x[12] x[13]
 x[14] x[15] x[16] x[17] x[18] x[19] x[20] x[21] x[22] x[23] x[24] x[25]
 x[26] x[27] x[28] x[29] x[30] x[31] x[32] x[33] x[34] x[35] x[36] x[37]
 x[38] x[39] x[40] x[41] x[42] x[43] x[44] x[45] x[46] x[47] x[48] x[49]
 x[50] x[51] x[52] x[53] x[54] x[55] x[56] x[57] x[58] x[59] x[60] x[61]
 x[62] x[63] x[64] x[65] x[66] x[67] x[68] x[69] x[70] x[71] x[72] x[73]
 x[74] x[75] x[76] x[77] x[78] x[79] x[80] x[81] x[82] x[83] x[84] x[85]
 x[86] x[87] x[88] x[89] u[0] u[1] u[2] u[3] u[4] u[5] u[6] u[7] u[8] u[9]
 u[10] u[11] u[12] u[13] u[14] u[15] u[16] u[17] u[18] u[19] u[20] u[21]
 u[22] u[23] u[24] u[25] u[26] u[27] u[28] u[29] u[30] u[31] u[32] u[33]
 u[34] u[35] u[36] u[37] u[38] u[39] u[40] u[41] u[42] u[43] u[44] u[45]
 u[46] u[47] u[48] u[49] u[50] u[51] u[52] u[53] u[54] u[55] u[56] u[57]
 u[58] u[59] u[60] u[61] u[62] u[63] u[64] u[65] u[66] u[67] u[68] u[69]
 u[70] u[71] u[72] u[73] u[74] u[75] u[76] u[77] u[78] u[79] u[80] u[81]
 u[82] u[83] u[84] u[85] u[86] u[87] u[88] u[89] r[0] r[1] r[2] r[3] r[4]
 r[5] r[6] r[7] r[8] r[9] r[10] r[11] r[12] r[13] r[14] r[15] r[16] r[17]
 r[18] r[19] r[20] r[21] r[22] r[23] r[24] r[25] r[26] r[27] r[28] r[29]
 r[30] r[31] r[32] r[33] r[34] r[35] r[36] r[37] r[38] r[39] r[40] r[41]
 r[42] r[43] r[44] r[45] r[46] r[47] r[48] r[49] r[50] r[51] r[52] r[53]
 r[54] r[55] r[56] r[57] r[58] r[59] r[60] r[61] r[62] r[63] r[64] r[65]
 r[66] r[67] r[68] r[69] r[70] r[71] r[72] r[73] r[74] r[75] r[76] r[77]
 r[78] r[79] r[80] r[81] r[82] r[83] r[84] r[85] r[86] r[87] r[88] r[89]
End
