instances/knapsack/discrete_knapsack_uncertainty/knapsack_90_14.kp
5800
90
411

63 6.3 73
63 6.3 50
9 0.9 39
38 3.8 63
11 1.1 81
97 9.7 64
88 8.8 1
19 1.9 83
16 1.6 34
97 9.7 18
15 1.5 22
98 9.8 38
7 0.7 18
67 6.7 89
36 3.6 70
88 8.8 19
60 6.0 37
3 0.3 49
12 1.2 78
73 7.3 33
4 0.4 21
19 1.9 98
11 1.1 35
14 1.4 39
100 10.0 80
95 9.5 10
65 6.5 67
83 8.3 91
77 7.7 53
30 3.0 68
53 5.3 12
3 0.3 19
79 7.9 47
4 0.4 62
47 4.7 71
4 0.4 60
63 6.3 44
64 6.4 98
87 8.7 62
2 0.2 63
30 3.0 59
5 0.5 89
81 8.1 65
37 3.7 90
82 8.2 34
62 6.2 10
85 8.5 76
17 1.7 40
74 7.4 72
95 9.5 61
34 3.4 34
51 5.1 26
36 3.6 30
27 2.7 88
48 4.8 71
99 9.9 85
36 3.6 34
14 1.4 19
51 5.1 19
21 2.1 94
20 2.0 39
30 3.0 13
3 0.3 17
26 2.6 89
83 8.3 30
83 8.3 4
16 1.6 92
94 9.4 73
55 5.5 76
29 2.9 53
69 6.9 20
53 5.3 10
89 8.9 24
82 8.2 69
75 7.5 94
60 6.0 81
30 3.0 33
38 3.8 44
44 4.4 7
94 9.4 79
69 6.9 46
45 4.5 61
6 0.6 85
69 6.9 37
29 2.9 64
49 4.9 64
7 0.7 5
71 7.1 2
5 0.5 95
50 5.0 14

29026
409

[0.21193565857261168 3.3054148601556417 0.5271806099805046 3.183909608867423 0.5074679359443888 4.02189586253613 0.0751904117133152 3.035539945664001 1.612279775350569 2.9637293914139575 1.5456930221417355 3.7306107083594733 4.409837104786553 4.313223144922261 2.511913378573863 2.8166865716411316 0.1043979512969041 0.1254475649841987 1.9906523577184245 2.997150096201571 1.274230153467085 0.4111551792972879 0.9925887707965753 3.729945192558291 2.788684319410816 0.6112066225728683 1.038066612175715 0.2799475768984567 0.5526051259340947 3.095526350209018 0.3789583864699439 3.472121460653153 0.6054918674911064 1.696865087000434 3.670325409174866 1.207254335911145 0.044364352770635426 3.752503143217758 3.5134069748961743 4.245517521804794 2.7235515343963526 1.631001245396736 1.515092160602467 1.6378937031725442 1.482222723216844 1.61791986429344 1.1477235134510717 0.37669272420554717 1.5233871116253404 3.596434777580383 3.1547654615880774 2.332708717551883 0.42904730580131933 0.4917908033865401 4.077220983180919 2.2189208095990547 2.1469977779928286 3.2551325801063604 3.3668055028414714 3.6602904109098824 0.5973283759566866 3.853891883316002 1.471123645318675 4.321399955121946 0.7128713042345798 4.403152837251526 0.9780339138902474 3.6139191493861063 3.442970192823994 1.9775928030338898 2.573553098539268 3.263174799753116 3.5131833206809895 3.116717778309928 3.829895597794843 3.4577838923167072 3.09406589918168 4.210233683756642 1.040254907407613 3.3576837782494637 0.029256803862661274 1.513255011788277 2.9367734871558544 0.5829500092944584 4.217951061896603 3.9110118679992874 0.40499953086969437 1.7219796087280943 3.3538155345626737 3.630497359343539]

[44 80 46 83 52 30 29 40 49 62 32 27 84 100 93 41 21 48 17 10 89 96 32 47 25 40 86 68 90 27 78 28 68 1 76 1 20 57 16 3 31 10 42 58 75 11 46 2 59 72 39 40 61 60 21 16 29 7 56 26 53 87 32 19 100 48 41 95 100 62 66 74 30 83 20 21 11 99 37 59 6 66 99 18 82 86 16 52 42 3]
